##### Graphene grafting polymer #####
# type 1: Graphene;  A
# type 2: backbone;  B
# type 3: sidechain; C
variable     epsAA   equal 0.821   
variable     epsBB   equal 0.500
variable     epsCC   equal 1.500
variable     epsBC   equal 0.866

variable     sigAA   equal 3.46  
variable     sigBB   equal 5.50  
variable     sigCC   equal 4.42 
variable     sigBC   equal 4.96

variable     epsAB   equal sqrt(${epsAA}*${epsBB})
variable     epsAC   equal sqrt(${epsAA}*${epsCC})

variable     sigAB   equal (${sigAA}+${sigBB})/2
variable     sigAC   equal (${sigAA}+${sigCC})/2

variable     sigAAcut equal ${sigAA}*1.1225
variable     sigBBcut equal ${sigBB}*1.1225
variable     sigCCcut equal ${sigCC}*1.1225
variable     sigABcut equal ${sigAB}*1.1225
variable     sigACcut equal ${sigAC}*1.1225
variable     sigBCcut equal ${sigBC}*1.1225

variable     Random equal "10*round(random(10, 5600000, 250))"
#######################################
units			real
boundary		p p p
atom_style		full
timestep        4

bond_style 		hybrid morse harmonic
angle_style     hybrid harmonic quartic table linear 361 
dihedral_style  hybrid harmonic multi/harmonic
pair_style      lj/gromacs 12 15 
special_bonds   lj 0 0 1
read_data 		Model.data

bond_coeff      1 morse 196.38 1.55 2.8
bond_coeff      2 harmonic 5 3 
bond_coeff      3 harmonic 105.0 2.735
bond_coeff      4 harmonic 39.86 3.658

angle_coeff     1 harmonic 409.40 120
angle_coeff     2 harmonic 5 90
angle_coeff     3 table AAA_avg_potential_iter9_eAB.table Angle   # A-A-A angle
angle_coeff     4 quartic 96.83 9.881 -15.12 6.589    # A-A-B angle

dihedral_coeff  1 harmonic 4.15 -1 2
dihedral_coeff  2 multi/harmonic 4.38 0.8739 -0.3571 -0.2774 0.09312 # A-A-A-A dihedral 
dihedral_coeff  3 multi/harmonic 4.519 -0.8859 -1.692 0.5625 0.9562  # B-A-A-B dihedral

##### Turn on LJ potential #####
pair_coeff      1 1 ${epsAA} ${sigAA}
pair_coeff      2 2 ${epsBB} ${sigBB}
pair_coeff      3 3 ${epsCC} ${sigCC}
pair_coeff      1 2 ${epsAB} ${sigAB}
pair_coeff      1 3 ${epsAC} ${sigAC}
pair_coeff      2 3 ${epsBC} ${sigBC}

variable 		TI equal 800    # Initial Temperature
variable 		TF  equal 300    # TTARGET 

group           graphene type 1
group           polymer type 2 3 
##################### Thermo output ################
thermo          5000
thermo_style    custom step etotal ke temp pe ebond eangle edihed evdwl elong press lx ly lz vol density

variable        den equal "density"
fix             65 all print 1000 "${den}" file density.txt

compute         1 polymer group/group graphene

#####     NPT annealing   #####
fix     	    58 all npt temp ${TF} ${TF} 400 iso 1 1 4000
run             50000
unfix           58
unfix           65

reset_timestep  0
timestep        4
########## tensile processing at specific strain ##########
variable tmp equal "lx"
variable L0 equal ${tmp}                    # allowed to redefined multiple times in an input script
variable strain equal "(lx - v_L0)/v_L0"    # true strain
variable p1 equal "v_strain"
variable p2 equal "-pxx*0.101325"           # normalized stress MPa
variable p3 equal "-pyy*0.101325"
variable p4 equal "-pzz*0.101325"

variable t2 equal "epair"
variable t3 equal "ebond"
variable t4 equal "eangle"
variable t5 equal "edihed"
variable t6 equal "eimp"

variable interE equal c_1
variable interFx equal c_1[1]
variable interFy equal c_1[2]
variable interFz equal c_1[3]

#variable interaction equal c_1
thermo          1000
thermo_style    custom step etotal ke temp pe ebond eangle edihed evdwl elong press lx ly lz vol density c_1 c_1[1] c_1[2] c_1[3]
 
fix               51 all npt temp ${TF} ${TF} 400 y 1 1 4000 z 1 1 4000
fix               52 all deform 1 x erate 5e-6 units box remap x 
fix               53 all print 100 "${p1} ${p2} ${p3} ${p4}" file tensile.txt screen no 
fix               54 all print 100 "${p2}" file pxx.txt screen no
fix               55 all print 100 "${p1} ${t2} ${t3} ${t4} ${t5} ${t6}" file energy.txt screen no
fix               56 all print 100 "${interE} ${interFx} ${interFy} ${interFz}" file Inter-energy.txt screen no
 
dump              tensile all custom 5000 tensile.dump id mol type x y z

dump              555 all dcd 1000 tensile-wrap.dcd
dump              55 all dcd 1000 tensile-unwrap.dcd
dump_modify       55 unwrap yes

run               250000
unfix             51
unfix             52
unfix             53
unfix             54
unfix             55

write_data  final.data
print "ALL DONE"
